language ESSENCE' 1.0
letting values be [[3, 6, 5, 2, 1, 9, 4, 0, 7], [7, 0, 0, 0, 0, 8, 0, 0, 0], [0, 4, 2, 0, 0, 0, 1, 0, 9], [0, 0, 3, 5, 9, 2, 7, 4, 0], [2, 0, 4, 1, 0, 7, 0, 0, 3], [0, 8, 0, 4, 3, 6, 0, 1, 2], [1, 0, 0, 7, 5, 0, 0, 0, 0], [4, 0, 0, 8, 2, 0, 9, 0, 5], [0, 0, 0, 9, 0, 0, 0, 2, 1]]